p tw 54 802
0 1
0 2
0 3
0 4
0 5
0 6
0 7
0 8
0 9
0 10
0 11
0 12
0 13
0 14
0 15
0 26
0 27
0 32
0 34
0 42
0 43
0 44
0 20
0 23
0 29
0 41
0 47
0 50
0 19
0 25
0 52
0 53
1 2
1 3
1 4
1 5
1 6
1 7
1 8
1 9
1 10
1 11
1 12
1 13
1 14
1 15
1 16
1 17
1 18
1 19
1 20
1 21
1 22
1 23
1 24
1 25
1 27
1 35
1 45
1 48
1 49
1 29
1 32
1 41
1 47
1 50
1 37
1 52
2 3
2 4
2 5
2 6
2 7
2 8
2 11
2 16
2 17
2 18
2 19
2 20
2 21
2 22
2 24
2 26
2 27
2 28
2 29
2 30
2 25
2 33
2 35
2 36
2 37
2 38
2 32
2 34
2 42
2 43
2 44
2 10
2 12
2 39
2 46
2 41
2 48
3 4
3 5
3 6
3 7
3 8
3 13
3 18
3 26
3 27
3 29
3 32
3 39
3 40
3 41
3 42
3 34
3 43
3 44
3 15
3 22
3 24
3 25
3 33
3 50
3 51
3 11
3 12
3 30
3 35
3 37
3 45
3 52
3 10
3 21
3 19
3 20
3 38
3 49
3 23
3 53
4 5
4 6
4 7
4 8
4 10
4 14
4 18
4 20
4 23
4 24
4 25
4 11
4 13
4 35
4 37
4 41
4 51
4 22
4 45
4 50
4 52
5 6
5 7
5 8
5 10
5 14
5 18
5 20
5 23
5 24
5 25
5 16
5 34
5 41
5 44
5 46
5 48
5 13
5 17
5 28
5 33
5 35
5 37
5 15
5 19
5 49
5 21
5 22
5 43
5 29
5 38
5 50
6 7
6 8
6 9
6 10
6 11
6 12
6 13
6 14
6 15
6 16
6 24
6 26
6 27
6 28
6 29
6 30
6 19
6 31
6 32
6 33
6 34
6 20
6 25
6 35
6 36
6 37
6 38
6 42
6 43
6 44
6 17
6 22
6 47
6 48
6 45
6 49
6 46
6 51
6 41
6 18
6 21
7 8
7 13
7 17
7 24
7 25
7 28
7 33
7 35
7 37
8 20
8 25
8 30
8 33
8 35
8 36
8 37
8 38
8 13
8 17
8 24
8 28
9 10
9 11
9 12
9 13
9 14
9 15
10 11
10 12
10 13
10 14
10 15
10 18
10 20
10 23
10 24
10 25
10 30
10 35
10 38
10 39
10 44
10 46
10 17
10 22
10 26
10 27
10 34
10 47
10 48
10 21
10 43
10 19
10 29
10 49
10 50
11 12
11 13
11 14
11 15
11 16
11 17
11 18
11 19
11 20
11 21
11 22
11 23
11 24
11 26
11 27
11 31
11 38
11 45
11 46
11 30
11 35
11 39
11 44
11 48
11 49
11 37
11 40
11 43
11 29
11 32
11 41
11 47
11 50
11 51
11 52
11 25
12 13
12 14
12 15
12 18
12 30
12 35
12 38
12 39
12 44
12 46
12 26
12 31
12 37
12 40
12 43
12 45
12 50
12 51
12 52
13 14
13 15
13 18
13 26
13 27
13 29
13 32
13 39
13 40
13 41
13 42
13 19
13 28
13 45
13 46
13 51
13 25
13 35
13 37
13 17
13 24
13 33
13 49
14 15
14 18
14 20
14 23
14 24
14 25
14 17
14 22
14 26
14 27
14 34
14 47
14 48
14 35
14 45
14 49
14 31
14 37
14 40
14 43
14 44
14 19
15 19
15 26
15 28
15 31
15 32
15 33
15 34
15 22
15 24
15 25
15 39
15 40
15 50
15 51
15 45
15 46
15 17
15 18
15 49
16 17
16 18
16 19
16 20
16 21
16 22
16 24
16 26
16 27
16 28
16 29
16 30
16 34
16 41
16 44
16 46
16 48
17 18
17 19
17 20
17 21
17 22
17 23
17 24
17 26
17 27
17 31
17 38
17 45
17 46
17 36
17 41
17 44
17 47
17 34
17 48
17 25
17 28
17 33
17 35
17 37
17 49
18 19
18 20
18 21
18 22
18 23
18 24
18 25
18 26
18 27
18 29
18 32
18 39
18 40
18 41
18 42
18 30
18 35
18 38
18 44
18 46
18 49
19 20
19 21
19 22
19 26
19 28
19 31
19 32
19 33
19 34
19 45
19 46
19 51
19 49
19 29
19 35
19 38
19 50
19 23
19 25
19 41
19 52
19 53
20 21
20 22
20 23
20 24
20 25
20 30
20 33
20 35
20 36
20 37
20 38
20 34
20 41
20 44
20 46
20 48
20 29
20 32
20 47
20 50
20 45
20 52
20 49
21 22
21 24
21 34
21 43
21 44
22 26
22 27
22 34
22 47
22 48
22 24
22 25
22 32
22 33
22 39
22 40
22 50
22 51
22 23
22 37
22 45
22 52
22 43
22 44
23 24
23 25
23 26
23 27
23 31
23 38
23 45
23 46
23 36
23 41
23 44
23 47
23 29
23 32
23 50
23 37
23 52
23 53
24 25
24 26
24 27
24 28
24 29
24 30
24 31
24 38
24 45
24 46
24 36
24 41
24 44
24 47
24 32
24 33
24 39
24 40
24 50
24 51
24 35
24 37
24 52
24 34
24 43
25 30
25 33
25 35
25 36
25 37
25 38
25 32
25 39
25 40
25 50
25 51
25 41
25 28
25 45
25 52
25 29
25 53
26 27
26 28
26 29
26 30
26 31
26 32
26 33
26 34
26 39
26 40
26 41
26 42
26 43
26 44
26 38
26 45
26 46
26 47
26 48
26 51
26 37
27 28
27 29
27 30
27 32
27 39
27 40
27 41
27 42
27 34
27 43
27 44
27 31
27 38
27 45
27 46
27 36
27 47
27 48
27 35
27 49
28 29
28 30
28 31
28 32
28 33
28 34
28 45
28 46
28 51
28 35
28 37
29 30
29 32
29 39
29 40
29 41
29 42
29 47
29 50
29 35
29 38
29 49
29 52
29 53
30 33
30 35
30 36
30 37
30 38
30 39
30 44
30 46
30 45
30 50
30 51
30 52
31 32
31 33
31 34
31 38
31 45
31 46
31 37
31 40
31 43
31 44
32 33
32 34
32 39
32 40
32 41
32 42
32 43
32 44
32 50
32 51
32 45
32 46
32 47
32 52
32 53
33 34
33 35
33 36
33 37
33 38
33 39
33 40
33 50
33 51
34 42
34 43
34 44
34 41
34 46
34 48
34 47
35 36
35 37
35 38
35 39
35 44
35 46
35 45
35 48
35 49
35 50
35 51
35 52
35 41
36 37
36 38
36 41
36 44
36 47
37 38
37 40
37 43
37 44
37 45
37 50
37 51
37 52
37 41
38 45
38 46
38 41
38 44
38 47
38 39
38 49
38 50
39 40
39 41
39 42
39 44
39 46
39 50
39 51
40 41
40 42
40 50
40 51
40 43
40 44
41 42
41 44
41 47
41 46
41 48
41 50
41 51
41 52
41 53
42 43
42 44
43 44
44 47
44 46
44 48
45 46
45 48
45 49
45 51
45 50
45 52
46 48
46 51
47 48
47 50
48 49
49 50
50 51
50 52
51 52
52 53
